solution status: optimal solution found
objective value:                           181485.291
d11(0,0)                                            1 	(obj:0)
d11(1,1)                                            1 	(obj:0)
d11(2,3)                                            1 	(obj:0)
d11(2,5)                                            1 	(obj:0)
d11(3,7)                                            1 	(obj:0)
d11(3,8)                                            1 	(obj:0)
d11(3,9)                                            1 	(obj:0)
d11(3,10)                                           1 	(obj:0)
d11(3,11)                                           1 	(obj:0)
d11(3,12)                                           1 	(obj:0)
d11(3,13)                                           1 	(obj:0)
d11(3,14)                                           1 	(obj:0)
d11(4,19)                                           1 	(obj:0)
d11(4,21)                                           1 	(obj:0)
d11(4,25)                                           1 	(obj:0)
d11(4,27)                                           1 	(obj:0)
d11(4,29)                                           1 	(obj:0)
d11(5,31)                           0.999999999999985 	(obj:0)
d11(5,33)                           0.999999999999985 	(obj:0)
d11(5,35)                           0.999999999999985 	(obj:0)
d11(5,37)                                           1 	(obj:0)
d11(5,39)                           0.999999999999985 	(obj:0)
d11(5,41)                           0.999999999999985 	(obj:0)
d11(5,45)                           0.999999999999985 	(obj:0)
d11(5,47)                           0.999999999999985 	(obj:0)
d11(5,49)                           0.999999999999985 	(obj:0)
d11(5,51)                           0.999999999999985 	(obj:0)
d11(5,53)                           0.999999999999985 	(obj:0)
d11(5,55)                           0.999999999999985 	(obj:0)
d11(5,57)                           0.999999999999985 	(obj:0)
d11(5,59)                           0.999999999999985 	(obj:0)
d11(5,61)                           0.999999999999985 	(obj:0)
d12(4,16)                                           1 	(obj:0)
d12(4,18)                                           1 	(obj:0)
d12(4,20)                                           1 	(obj:0)
d12(4,22)                                           1 	(obj:0)
d12(4,24)                                           1 	(obj:0)
d12(4,26)                                           1 	(obj:0)
d12(4,28)                                           1 	(obj:0)
d12(4,30)                                           1 	(obj:0)
d12(5,32)                                           1 	(obj:0)
d12(5,34)                                           1 	(obj:0)
d12(5,36)                                           1 	(obj:0)
d12(5,38)                                           1 	(obj:0)
d12(5,40)                                           1 	(obj:0)
d12(5,42)                                           1 	(obj:0)
d12(5,44)                                           1 	(obj:0)
d12(5,46)                                           1 	(obj:0)
d12(5,48)                                           1 	(obj:0)
d12(5,50)                                           1 	(obj:0)
d12(5,52)                                           1 	(obj:0)
d12(5,54)                                           1 	(obj:0)
d12(5,56)                                           1 	(obj:0)
d12(5,58)                                           1 	(obj:0)
d12(5,60)                                           1 	(obj:0)
d12(5,62)                                           1 	(obj:0)
d21(3,7)                                            1 	(obj:0)
d21(3,8)                                            1 	(obj:0)
d21(3,9)                                            1 	(obj:0)
d21(3,11)                                           1 	(obj:0)
d21(4,15)                                           1 	(obj:0)
d21(4,16)                                           1 	(obj:0)
d21(4,17)                                           1 	(obj:0)
d21(4,19)                                           1 	(obj:0)
d21(4,23)                                           1 	(obj:0)
d21(5,31)                                           1 	(obj:0)
d21(5,32)                                           1 	(obj:0)
d21(5,33)                                           1 	(obj:0)
d21(5,34)                                           1 	(obj:0)
d21(5,35)                                           1 	(obj:0)
d21(5,36)                                           1 	(obj:0)
d21(5,37)                                           1 	(obj:0)
d21(5,39)                                           1 	(obj:0)
d21(5,40)                                           1 	(obj:0)
d21(5,41)                                           1 	(obj:0)
d21(5,47)                                           1 	(obj:0)
d21(5,48)                                           1 	(obj:0)
d21(5,49)                                           1 	(obj:0)
y2(5,40)                             1385.48851144895 	(obj:0)
y2(5,42)                             1385.48851144895 	(obj:0)
y2(5,44)                             1385.48851144895 	(obj:0)
y2(5,46)                             1385.48851144895 	(obj:0)
y2(5,48)                             1385.48851144895 	(obj:0)
y2(5,50)                             1385.48851144895 	(obj:0)
y2(5,52)                             1385.48851144895 	(obj:0)
y2(5,54)                             1385.48851144895 	(obj:0)
y2(5,56)                             1385.48851144895 	(obj:0)
y2(5,58)                             1385.48851144895 	(obj:0)
y2(5,60)                             1385.48851144895 	(obj:0)
y2(5,62)                             1385.48851144895 	(obj:0)
STE(1,1)                             4137.75010111118 	(obj:0)
STE(0,0)                                         6300 	(obj:0)
STE(1,2)                                         5796 	(obj:0)
STE(2,3)                             1975.50020222234 	(obj:0)
STE(2,4)                             3633.75010111118 	(obj:0)
STE(2,5)                             3633.75010111115 	(obj:0)
STE(2,6)                                         5292 	(obj:0)
STE(3,7)                            -418.499797777665 	(obj:0)
STE(3,8)                             1239.75010111115 	(obj:0)
STE(3,9)                             1239.75010111118 	(obj:0)
STE(3,10)                                        2898 	(obj:0)
STE(3,11)                            1239.75010111116 	(obj:0)
STE(3,12)                            2897.99999999997 	(obj:0)
STE(3,13)                                        2898 	(obj:0)
STE(3,14)                            4556.24989888882 	(obj:0)
STE(4,15)                           -922.499797777665 	(obj:0)
STE(4,16)                            393.714288098822 	(obj:0)
STE(4,17)                            735.750101111153 	(obj:0)
STE(4,18)                            2051.96418698764 	(obj:0)
STE(4,19)                            735.750101111181 	(obj:0)
STE(4,20)                            2051.96418698767 	(obj:0)
STE(4,21)                                        2394 	(obj:0)
STE(4,22)                            3710.21408587649 	(obj:0)
STE(4,23)                            735.750101111155 	(obj:0)
STE(4,24)                            2051.96418698764 	(obj:0)
STE(4,25)                            2393.99999999997 	(obj:0)
STE(4,26)                            3710.21408587646 	(obj:0)
STE(4,27)                                        2394 	(obj:0)
STE(4,28)                            3710.21408587649 	(obj:0)
STE(4,29)                            4052.24989888882 	(obj:0)
STE(4,30)                             5368.4639847653 	(obj:0)
STE(5,31)                           -1426.49979777766 	(obj:0)
STE(5,32)                           -110.285711901159 	(obj:0)
STE(5,33)                           -110.285711901178 	(obj:0)
STE(5,34)                            1205.92837397533 	(obj:0)
STE(5,35)                            231.750101111153 	(obj:0)
STE(5,36)                            1547.96418698766 	(obj:0)
STE(5,37)                            1547.96418698764 	(obj:0)
STE(5,38)                            2864.17827286415 	(obj:0)
STE(5,39)                            231.750101111181 	(obj:0)
STE(5,40)                            1547.96418698769 	(obj:0)
STE(5,41)                            1547.96418698767 	(obj:0)
STE(5,42)                            2864.17827286417 	(obj:0)
STE(5,43)                                        1890 	(obj:0)
STE(5,44)                             3206.2140858765 	(obj:0)
STE(5,45)                            3206.21408587649 	(obj:0)
STE(5,46)                            4522.42817175299 	(obj:0)
STE(5,47)                            231.750101111155 	(obj:0)
STE(5,48)                            1547.96418698766 	(obj:0)
STE(5,49)                            1547.96418698764 	(obj:0)
STE(5,50)                            2864.17827286415 	(obj:0)
STE(5,51)                            1889.99999999997 	(obj:0)
STE(5,52)                            3206.21408587648 	(obj:0)
STE(5,53)                            3206.21408587646 	(obj:0)
STE(5,54)                            4522.42817175296 	(obj:0)
STE(5,55)                                        1890 	(obj:0)
STE(5,56)                            3206.21408587651 	(obj:0)
STE(5,57)                            3206.21408587649 	(obj:0)
STE(5,58)                            4522.42817175299 	(obj:0)
STE(5,59)                            3548.24989888882 	(obj:0)
STE(5,60)                            4864.46398476532 	(obj:0)
STE(5,61)                             4864.4639847653 	(obj:0)
STE(5,62)                            6180.67807064181 	(obj:0)
AVE(1)                                   3216.9117036 	(obj:0)
AVE(2)                                   3366.1541945 	(obj:0)
AVE(3)                                   3515.3966854 	(obj:0)
WB(4)                                 841.98412668273 	(obj:0)
AVE(4)                               3515.39406545826 	(obj:0)
WB(5)                                3167.15385943327 	(obj:0)
AVE(5)                               3167.15385943327 	(obj:0)
WG(1)                                    3216.9117036 	(obj:10)
WG(2)                                    3366.1541945 	(obj:10)
WG(3)                                    3515.3966854 	(obj:10)
WG(4)                                2673.40993877553 	(obj:10)
BG(1)                                979.380795379567 	(obj:10)
BG(2)                                830.138304479591 	(obj:10)
BG(3)                                893.727539089835 	(obj:10)
BG(5)                                2673.40993877551 	(obj:10)
y1(1,1)                              1492.42490899994 	(obj:0)
y1(2,3)                              1492.42490899996 	(obj:0)
y1(2,5)                              1492.42490899996 	(obj:0)
y1(3,7)                                          1701 	(obj:0)
y1(3,8)                              208.575091000064 	(obj:0)
y1(3,9)                                          1701 	(obj:0)
y1(3,10)                             208.575091000064 	(obj:0)
y1(3,11)                                         1701 	(obj:0)
y1(3,12)                             208.575091000064 	(obj:0)
y1(3,13)                                         1701 	(obj:0)
y1(3,14)                             208.575091000064 	(obj:0)
y2(4,16)                             1385.48851144893 	(obj:0)
y2(4,18)                             1385.48851144893 	(obj:0)
y2(4,20)                             1385.48851144893 	(obj:0)
y2(4,22)                             1385.48851144893 	(obj:0)
y2(4,24)                             1385.48851144893 	(obj:0)
y2(4,26)                             1385.48851144893 	(obj:0)
y2(4,28)                             1385.48851144893 	(obj:0)
y2(4,30)                             1385.48851144893 	(obj:0)
y2(5,32)                             1385.48851144895 	(obj:0)
y2(5,34)                             1385.48851144895 	(obj:0)
y2(5,36)                             1385.48851144895 	(obj:0)
y2(5,38)                             1385.48851144895 	(obj:0)
